p cnf 115 106
-1 14 28 35 44 69 76 104 -2 77 112 0 
-3 78 -4 112 0 
-5 -6 -7 112 0 
-8 9 10 12 15 16 17 24 26 27 29 30 31 34 37 38 39 43 63 64 65 66 67 73 80 82 85 86 87 88 89 90 91 92 93 94 97 99 100 101 102 105 112 0 
-9 8 10 12 15 16 17 24 26 27 29 30 31 34 37 38 39 43 63 64 65 66 67 73 80 82 85 86 87 88 89 90 91 92 93 94 97 99 100 101 102 105 112 0 
-10 8 9 12 15 16 17 24 26 27 29 30 31 34 37 38 39 43 63 64 65 66 67 73 80 82 85 86 87 88 89 90 91 92 93 94 97 99 100 101 102 105 112 0 
-11 13 18 19 21 36 40 41 42 60 68 70 71 72 74 81 83 84 112 0 
-12 8 9 10 15 16 17 24 26 27 29 30 31 34 37 38 39 43 63 64 65 66 67 73 80 82 85 86 87 88 89 90 91 92 93 94 97 99 100 101 102 105 112 0 
-13 11 18 19 21 36 40 41 42 60 68 70 71 72 74 81 83 84 112 0 
-14 1 28 35 44 69 76 104 112 0 
-15 8 9 10 12 16 17 24 26 27 29 30 31 34 37 38 39 43 63 64 65 66 67 73 80 82 85 86 87 88 89 90 91 92 93 94 97 99 100 101 102 105 112 0 
-16 8 9 10 12 15 17 24 26 27 29 30 31 34 37 38 39 43 63 64 65 66 67 73 80 82 85 86 87 88 89 90 91 92 93 94 97 99 100 101 102 105 112 0 
-17 8 9 10 12 15 16 24 26 27 29 30 31 34 37 38 39 43 63 64 65 66 67 73 80 82 85 86 87 88 89 90 91 92 93 94 97 99 100 101 102 105 112 0 
-18 11 13 19 21 36 40 41 42 60 68 70 71 72 74 81 83 84 112 0 
-19 11 13 18 21 36 40 41 42 60 68 70 71 72 74 81 83 84 112 0 
-20 23 25 45 46 112 0 
-21 11 13 18 19 36 40 41 42 60 68 70 71 72 74 81 83 84 112 0 
-22 32 112 0 
-1 14 28 35 44 69 76 104 112 0 
-23 20 25 45 46 112 0 
-24 8 9 10 12 15 16 17 26 27 29 30 31 34 37 38 39 43 63 64 65 66 67 73 80 82 85 86 87 88 89 90 91 92 93 94 97 99 100 101 102 105 112 0 
-25 20 23 45 46 112 0 
-26 8 9 10 12 15 16 17 24 27 29 30 31 34 37 38 39 43 63 64 65 66 67 73 80 82 85 86 87 88 89 90 91 92 93 94 97 99 100 101 102 105 112 0 
-27 8 9 10 12 15 16 17 24 26 29 30 31 34 37 38 39 43 63 64 65 66 67 73 80 82 85 86 87 88 89 90 91 92 93 94 97 99 100 101 102 105 112 0 
-28 1 14 35 44 69 76 104 112 0 
-29 8 9 10 12 15 16 17 24 26 27 30 31 34 37 38 39 43 63 64 65 66 67 73 80 82 85 86 87 88 89 90 91 92 93 94 97 99 100 101 102 105 112 0 
-30 8 9 10 12 15 16 17 24 26 27 29 31 34 37 38 39 43 63 64 65 66 67 73 80 82 85 86 87 88 89 90 91 92 93 94 97 99 100 101 102 105 112 0 
-31 8 9 10 12 15 16 17 24 26 27 29 30 34 37 38 39 43 63 64 65 66 67 73 80 82 85 86 87 88 89 90 91 92 93 94 97 99 100 101 102 105 112 0 
-32 22 112 0 
-33 95 112 0 
-34 8 9 10 12 15 16 17 24 26 27 29 30 31 37 38 39 43 63 64 65 66 67 73 80 82 85 86 87 88 89 90 91 92 93 94 97 99 100 101 102 105 112 0 
-35 1 14 28 44 69 76 104 112 0 
-36 11 13 18 19 21 40 41 42 60 68 70 71 72 74 81 83 84 112 0 
-37 8 9 10 12 15 16 17 24 26 27 29 30 31 34 38 39 43 63 64 65 66 67 73 80 82 85 86 87 88 89 90 91 92 93 94 97 99 100 101 102 105 112 0 
-38 8 9 10 12 15 16 17 24 26 27 29 30 31 34 37 39 43 63 64 65 66 67 73 80 82 85 86 87 88 89 90 91 92 93 94 97 99 100 101 102 105 112 0 
-39 8 9 10 12 15 16 17 24 26 27 29 30 31 34 37 38 43 63 64 65 66 67 73 80 82 85 86 87 88 89 90 91 92 93 94 97 99 100 101 102 105 112 0 
-40 11 13 18 19 21 36 41 42 60 68 70 71 72 74 81 83 84 112 0 
-41 11 13 18 19 21 36 40 42 60 68 70 71 72 74 81 83 84 112 0 
-42 11 13 18 19 21 36 40 41 60 68 70 71 72 74 81 83 84 112 0 
-43 8 9 10 12 15 16 17 24 26 27 29 30 31 34 37 38 39 63 64 65 66 67 73 80 82 85 86 87 88 89 90 91 92 93 94 97 99 100 101 102 105 112 0 
-44 1 14 28 35 69 76 104 112 0 
-45 20 23 25 46 112 0 
-46 20 23 25 45 112 0 
-47 112 0 
-48 54 110 112 0 
-5 -49 -50 -51 112 0 
-52 -48 54 110 112 0 
-52 112 0 
-51 112 0 
-53 113 0 
-53 112 0 
-54 48 110 -55 113 0 
-56 112 0 
-57 112 0 
-58 114 -49 0 
-59 108 -60 11 13 18 19 21 36 40 41 42 68 70 71 72 74 81 83 84 115 0 
-61 115 0 
-62 112 0 
-63 8 9 10 12 15 16 17 24 26 27 29 30 31 34 37 38 39 43 64 65 66 67 73 80 82 85 86 87 88 89 90 91 92 93 94 97 99 100 101 102 105 112 0 
-64 8 9 10 12 15 16 17 24 26 27 29 30 31 34 37 38 39 43 63 65 66 67 73 80 82 85 86 87 88 89 90 91 92 93 94 97 99 100 101 102 105 112 0 
-65 8 9 10 12 15 16 17 24 26 27 29 30 31 34 37 38 39 43 63 64 66 67 73 80 82 85 86 87 88 89 90 91 92 93 94 97 99 100 101 102 105 112 0 
-66 8 9 10 12 15 16 17 24 26 27 29 30 31 34 37 38 39 43 63 64 65 67 73 80 82 85 86 87 88 89 90 91 92 93 94 97 99 100 101 102 105 112 0 
-67 8 9 10 12 15 16 17 24 26 27 29 30 31 34 37 38 39 43 63 64 65 66 73 80 82 85 86 87 88 89 90 91 92 93 94 97 99 100 101 102 105 112 0 
-68 11 13 18 19 21 36 40 41 42 60 70 71 72 74 81 83 84 112 0 
-69 1 14 28 35 44 76 104 112 0 
-70 11 13 18 19 21 36 40 41 42 60 68 71 72 74 81 83 84 112 0 
-71 11 13 18 19 21 36 40 41 42 60 68 70 72 74 81 83 84 112 0 
-72 11 13 18 19 21 36 40 41 42 60 68 70 71 74 81 83 84 112 0 
-73 8 9 10 12 15 16 17 24 26 27 29 30 31 34 37 38 39 43 63 64 65 66 67 80 82 85 86 87 88 89 90 91 92 93 94 97 99 100 101 102 105 112 0 
-74 11 13 18 19 21 36 40 41 42 60 68 70 71 72 81 83 84 112 0 
-75 -51 112 0 
-76 1 14 28 35 44 69 104 112 0 
-77 2 -50 112 0 
-78 3 -79 112 0 
-80 8 9 10 12 15 16 17 24 26 27 29 30 31 34 37 38 39 43 63 64 65 66 67 73 82 85 86 87 88 89 90 91 92 93 94 97 99 100 101 102 105 112 0 
-81 11 13 18 19 21 36 40 41 42 60 68 70 71 72 74 83 84 112 0 
-82 8 9 10 12 15 16 17 24 26 27 29 30 31 34 37 38 39 43 63 64 65 66 67 73 80 85 86 87 88 89 90 91 92 93 94 97 99 100 101 102 105 112 0 
-83 11 13 18 19 21 36 40 41 42 60 68 70 71 72 74 81 84 112 0 
-84 11 13 18 19 21 36 40 41 42 60 68 70 71 72 74 81 83 112 0 
-85 8 9 10 12 15 16 17 24 26 27 29 30 31 34 37 38 39 43 63 64 65 66 67 73 80 82 86 87 88 89 90 91 92 93 94 97 99 100 101 102 105 112 0 
-86 8 9 10 12 15 16 17 24 26 27 29 30 31 34 37 38 39 43 63 64 65 66 67 73 80 82 85 87 88 89 90 91 92 93 94 97 99 100 101 102 105 112 0 
-87 8 9 10 12 15 16 17 24 26 27 29 30 31 34 37 38 39 43 63 64 65 66 67 73 80 82 85 86 88 89 90 91 92 93 94 97 99 100 101 102 105 112 0 
-88 8 9 10 12 15 16 17 24 26 27 29 30 31 34 37 38 39 43 63 64 65 66 67 73 80 82 85 86 87 89 90 91 92 93 94 97 99 100 101 102 105 112 0 
-89 8 9 10 12 15 16 17 24 26 27 29 30 31 34 37 38 39 43 63 64 65 66 67 73 80 82 85 86 87 88 90 91 92 93 94 97 99 100 101 102 105 112 0 
-90 8 9 10 12 15 16 17 24 26 27 29 30 31 34 37 38 39 43 63 64 65 66 67 73 80 82 85 86 87 88 89 91 92 93 94 97 99 100 101 102 105 112 0 
-91 8 9 10 12 15 16 17 24 26 27 29 30 31 34 37 38 39 43 63 64 65 66 67 73 80 82 85 86 87 88 89 90 92 93 94 97 99 100 101 102 105 112 0 
-92 8 9 10 12 15 16 17 24 26 27 29 30 31 34 37 38 39 43 63 64 65 66 67 73 80 82 85 86 87 88 89 90 91 93 94 97 99 100 101 102 105 112 0 
-93 8 9 10 12 15 16 17 24 26 27 29 30 31 34 37 38 39 43 63 64 65 66 67 73 80 82 85 86 87 88 89 90 91 92 94 97 99 100 101 102 105 112 0 
-94 8 9 10 12 15 16 17 24 26 27 29 30 31 34 37 38 39 43 63 64 65 66 67 73 80 82 85 86 87 88 89 90 91 92 93 97 99 100 101 102 105 112 0 
-95 33 112 0 
-96 112 0 
-97 8 9 10 12 15 16 17 24 26 27 29 30 31 34 37 38 39 43 63 64 65 66 67 73 80 82 85 86 87 88 89 90 91 92 93 94 99 100 101 102 105 112 0 
-98 112 0 
-99 8 9 10 12 15 16 17 24 26 27 29 30 31 34 37 38 39 43 63 64 65 66 67 73 80 82 85 86 87 88 89 90 91 92 93 94 97 100 101 102 105 112 0 
-100 8 9 10 12 15 16 17 24 26 27 29 30 31 34 37 38 39 43 63 64 65 66 67 73 80 82 85 86 87 88 89 90 91 92 93 94 97 99 101 102 105 112 0 
-101 8 9 10 12 15 16 17 24 26 27 29 30 31 34 37 38 39 43 63 64 65 66 67 73 80 82 85 86 87 88 89 90 91 92 93 94 97 99 100 102 105 112 0 
-102 8 9 10 12 15 16 17 24 26 27 29 30 31 34 37 38 39 43 63 64 65 66 67 73 80 82 85 86 87 88 89 90 91 92 93 94 97 99 100 101 105 112 0 
-103 112 0 
-104 1 14 28 35 44 69 76 112 0 
-105 8 9 10 12 15 16 17 24 26 27 29 30 31 34 37 38 39 43 63 64 65 66 67 73 80 82 85 86 87 88 89 90 91 92 93 94 97 99 100 101 102 112 0 
-106 -107 112 0 
-108 59 112 0 
-109 -107 112 0 
-110 48 54 112 0 
-111 112 0 
-61 112 0 
